
Gurobi 9.5.1 (linux64) logging started Tue Jun 21 12:10:19 2022

Set parameter LogFile to value "../results/logs/log_Brightkite_edges_20_1_2022_06_21_12_08.log"
Gurobi Optimizer version 9.5.1 build v9.5.1rc2 (linux64)
Thread count: 8 physical cores, 8 logical processors, using up to 8 threads
Optimize a model with 7279 rows, 116456 columns and 326490 nonzeros
Model fingerprint: 0x330e47c8
Variable types: 0 continuous, 116456 integer (116456 binary)
Coefficient statistics:
  Matrix range     [1e+00, 2e+01]
  Objective range  [1e+00, 1e+00]
  Bounds range     [1e+00, 1e+00]
  RHS range        [1e+00, 1e+00]
Found heuristic solution: objective 947.0000000
Presolve removed 4467 rows and 108366 columns
Presolve time: 0.67s
Presolved: 2812 rows, 8090 columns, 74695 nonzeros
Found heuristic solution: objective 948.0000000
Variable types: 0 continuous, 8090 integer (8090 binary)

Root relaxation: objective 2.075335e+03, 1403 iterations, 0.10 seconds (0.16 work units)

    Nodes    |    Current Node    |     Objective Bounds      |     Work
 Expl Unexpl |  Obj  Depth IntInf | Incumbent    BestBd   Gap | It/Node Time

     0     0 2071.24637    0  798  948.00000 2071.24637   118%     -    1s
H    0     0                     949.0000000 2071.24637   118%     -    1s
H    0     0                     950.0000000 2071.24637   118%     -    1s
H    0     0                     968.0000000 2071.24637   114%     -    1s
     0     0 1476.52605    0  326  968.00000 1476.52605  52.5%     -    3s
     0     0 1321.95877    0  303  968.00000 1321.95877  36.6%     -    3s
     0     0 1321.95877    0  314  968.00000 1321.95877  36.6%     -    4s
     0     0 1321.95877    0  292  968.00000 1321.95877  36.6%     -    4s
     0     0 1321.95877    0  238  968.00000 1321.95877  36.6%     -    5s
     0     0  976.75325    0    6  968.00000  976.75325  0.90%     -    5s
H    0     0                     973.0000000  976.75325  0.39%     -    5s
     0     0  973.00000    0    8  973.00000  973.00000  0.00%     -    5s

Cutting planes:
  Gomory: 1
  Cover: 1
  MIR: 1
  GUB cover: 1
  RLT: 1

Explored 1 nodes (6220 simplex iterations) in 5.49 seconds (5.80 work units)
Thread count was 8 (of 8 available processors)

Solution count 8: 973 968 968 ... 947

Optimal solution found (tolerance 0.00e+00)
Best objective 9.730000000000e+02, best bound 9.730000000000e+02, gap 0.0000%

Gurobi 9.5.1 (linux64) logging started Wed Jun 22 00:23:41 2022

Set parameter LogFile to value "../results/logs/log_Brightkite_edges_20_1_2022_06_21_12_08.log"
Gurobi Optimizer version 9.5.1 build v9.5.1rc2 (linux64)
Thread count: 8 physical cores, 8 logical processors, using up to 8 threads
Optimize a model with 435 rows, 116456 columns and 85110 nonzeros
Model fingerprint: 0x398e61b9
Variable types: 0 continuous, 116456 integer (116456 binary)
Coefficient statistics:
  Matrix range     [1e+00, 2e+01]
  Objective range  [1e+00, 1e+00]
  Bounds range     [1e+00, 1e+00]
  RHS range        [1e+00, 1e+00]
Found heuristic solution: objective 947.0000000
Presolve removed 63 rows and 115162 columns
Presolve time: 0.09s
Presolved: 372 rows, 1294 columns, 7404 nonzeros
Found heuristic solution: objective 949.0000000
Variable types: 0 continuous, 1294 integer (1294 binary)

Root relaxation: objective 1.121955e+03, 122 iterations, 0.00 seconds (0.00 work units)

    Nodes    |    Current Node    |     Objective Bounds      |     Work
 Expl Unexpl |  Obj  Depth IntInf | Incumbent    BestBd   Gap | It/Node Time

     0     0 1119.95202    0   76  949.00000 1119.95202  18.0%     -    0s
H    0     0                     951.0000000 1119.95202  17.8%     -    0s
H    0     0                     964.0000000 1057.65679  9.72%     -    0s
     0     0 1053.16738    0   71  964.00000 1053.16738  9.25%     -    0s
H    0     0                     965.0000000 1053.16738  9.14%     -    0s
H    0     0                     967.0000000 1053.16738  8.91%     -    0s
H    0     0                     968.0000000 1052.99705  8.78%     -    0s
     0     0 1050.89410    0   89  968.00000 1050.89410  8.56%     -    0s
     0     0 1039.26756    0   68  968.00000 1039.26756  7.36%     -    0s
     0     0 1039.21832    0   66  968.00000 1039.21832  7.36%     -    0s
     0     0 1039.21832    0   60  968.00000 1039.21832  7.36%     -    0s
     0     0 1039.21832    0   43  968.00000 1039.21832  7.36%     -    0s
     0     0 1020.26591    0   79  968.00000 1020.26591  5.40%     -    0s
     0     0  976.90909    0    6  968.00000  976.90909  0.92%     -    0s
H    0     0                     973.0000000  976.90909  0.40%     -    0s
     0     0  973.00000    0    4  973.00000  973.00000  0.00%     -    0s

Cutting planes:
  Gomory: 2
  Cover: 2
  MIR: 1
  GUB cover: 1

Explored 1 nodes (1503 simplex iterations) in 0.53 seconds (0.41 work units)
Thread count was 8 (of 8 available processors)

Solution count 10: 973 968 968 ... 949

Optimal solution found (tolerance 0.00e+00)
Best objective 9.730000000000e+02, best bound 9.730000000000e+02, gap 0.0000%
